solution status: optimal solution found
objective value:                                    5
af$2$0                                              1 	(obj:0)
af$2$1                                              1 	(obj:0)
af$3$0                                              1 	(obj:0)
af$3$1                                              1 	(obj:0)
af$4$0                                              1 	(obj:0)
af$4$1                                              1 	(obj:0)
af$5$0                                              1 	(obj:0)
af$5$1                                              1 	(obj:0)
af$6$0                                              1 	(obj:0)
af$6$1                                              1 	(obj:0)
a$2                                                 1 	(obj:1)
a$3                                                 1 	(obj:1)
a$4                                                 1 	(obj:1)
a$5                                                 1 	(obj:1)
a$6                                                 1 	(obj:1)
v$4$0                             0.00699999999983447 	(obj:0)
v$5$1                                1.14285714285714 	(obj:0)
v$4$1                                               4 	(obj:0)
v$2$0                            0.000999999999976353 	(obj:0)
v$3$0                            0.000999999999976353 	(obj:0)
v$6$1                                1.14285714285714 	(obj:0)
v$6$0                             0.00199999999995271 	(obj:0)
v$5$0                             0.00199999999995271 	(obj:0)
v$2$1                               0.571428571428571 	(obj:0)
v$3$1                               0.571428571428571 	(obj:0)
